data/processed_heuristic-threshold/instances/1/10/ds_1016_courier_1558/pairwise.tsp
NAME: ds_1016_courier_1558
TYPE: TSP
COMMENT: nil
DIMENSION: 11
EDGE_WEIGHT_TYPE: EXPLICIT
EDGE_WEIGHT_FORMAT: FULL_MATRIX
EDGE_WEIGHT_SECTION
9999 25 50 41 41 39 33 41 40 49 586 
25 9999 27 18 18 18 10 17 15 23 592 
50 27 9999 9 9 12 17 21 12 9 611 
41 18 9 9999 2 5 8 16 4 10 605 
41 18 9 2 9999 3 8 18 6 12 607 
39 18 12 5 3 9999 8 20 8 15 608 
33 10 17 8 8 8 9999 15 7 16 600 
41 17 21 16 18 20 15 9999 12 12 590 
40 15 12 4 6 8 7 12 9999 9 601 
49 23 9 10 12 15 16 12 9 9999 601 
586 592 611 605 607 608 600 590 601 601 9999 
