data/processed_heuristic-threshold/instances/1/10/ds_1016_courier_1558/pairwise.sol
11
0 10 7 9 2 5 4 3 8 6 
1 
